instances/knapsack/discrete_knapsack_uncertainty/knapsack_50_16.lp
\ Model knapsack_50_16
\ LP format - for model browsing. Use MPS format to capture full model detail.
\ Signature: 0xe2d4f45d0ac270ee
Minimize
  - 46 x[0] - 46 x[1] - 52 x[2] - 56 x[3] - 37 x[4] - 9 x[5] - 13 x[6]
   - 55 x[7] - 90 x[8] - 50 x[9] - 59 x[10] - 99 x[11] - 23 x[12]
   - 10 x[13] - 7 x[14] - 84 x[15] - 30 x[16] - 2 x[17] - 94 x[18]
   - 73 x[19] - 21 x[20] - 51 x[21] - 96 x[22] - 44 x[23] - 77 x[24]
   - 54 x[25] - 20 x[26] - 19 x[27] - 18 x[28] - 92 x[29] - 33 x[30]
   - 52 x[31] - 80 x[32] - 15 x[33] - 31 x[34] - 5 x[35] - 97 x[36]
   - 43 x[37] - 26 x[38] - 87 x[39] - 48 x[40] - 5 x[41] - 73 x[42]
   - 35 x[43] - 94 x[44] - 27 x[45] - 28 x[46] - 32 x[47] - 68 x[48]
   - 65 x[49]
Subject To
 primal_upper: 73 x[0] + 2 x[1] + 8 x[2] + 13 x[3] + 54 x[4] + 15 x[5]
   + 47 x[6] + 41 x[7] + 3 x[8] + 40 x[9] + 65 x[10] + 73 x[11] + 94 x[12]
   + 6 x[13] + 38 x[14] + 50 x[15] + 79 x[16] + 26 x[17] + 83 x[18]
   + 36 x[19] + 99 x[20] + 29 x[21] + 10 x[22] + 40 x[23] + 86 x[24]
   + 62 x[25] + 8 x[26] + x[27] + 63 x[28] + 25 x[29] + 87 x[30] + 13 x[31]
   + 69 x[32] + 43 x[33] + 78 x[34] + 35 x[35] + 86 x[36] + 42 x[37]
   + 58 x[38] + 28 x[39] + 69 x[40] + 51 x[41] + 88 x[42] + 63 x[43]
   + 85 x[44] + 92 x[45] + 15 x[46] + 3 x[47] + 57 x[48] + 30 x[49]
   + 7.3 r[0] + 0.2 r[1] + 0.8 r[2] + 1.3 r[3] + 5.4 r[4] + 1.5 r[5]
   + 4.7 r[6] + 4.1 r[7] + 0.3 r[8] + 4 r[9] + 6.5 r[10] + 7.3 r[11]
   + 9.4 r[12] + 0.6 r[13] + 3.8 r[14] + 5 r[15] + 7.9 r[16] + 2.6 r[17]
   + 8.3 r[18] + 3.6 r[19] + 9.9 r[20] + 2.9 r[21] + r[22] + 4 r[23]
   + 8.6 r[24] + 6.2 r[25] + 0.8 r[26] + 0.1 r[27] + 6.3 r[28] + 2.5 r[29]
   + 8.7 r[30] + 1.3 r[31] + 6.9 r[32] + 4.3 r[33] + 7.8 r[34] + 3.5 r[35]
   + 8.6 r[36] + 4.2 r[37] + 5.8 r[38] + 2.8 r[39] + 6.9 r[40] + 5.1 r[41]
   + 8.8 r[42] + 6.3 r[43] + 8.5 r[44] + 9.2 r[45] + 1.5 r[46] + 0.3 r[47]
   + 5.7 r[48] + 3 r[49] <= 224
 primal_lower: 2.173598683009245 x[0] + 1.973617921552776 x[1]
   + 1.038359219058802 x[2] + 0.1710739025772158 x[3]
   + 1.309775622428416 x[4] + 2.893153537811671 x[5]
   + 1.560412011221232 x[6] + 0.1402514985598612 x[7]
   + 2.562149875294712 x[8] + 3.233187267349699 x[9]
   + 2.325554756995472 x[10] + 3.078920468574471 x[11]
   + 1.579178331740659 x[12] + 2.203871058883124 x[13]
   + 3.119303120257402 x[14] + 0.7131799401359958 x[15]
   + 3.727724546261765 x[16] + 3.292023014144048 x[17]
   + 1.51505163051598 x[18] + 4.028963185645854 x[19]
   + 1.948569631760897 x[20] + 3.503964204357563 x[21]
   + 0.5550329759691696 x[22] + 1.757759525164031 x[23]
   + 4.10168508530796 x[24] + 3.018862330655322 x[25]
   + 3.826893283109649 x[26] + 4.089836666940913 x[27]
   + 1.463127127411674 x[28] + 1.829059444724702 x[29]
   + 2.472680642593883 x[30] + 1.115902627294846 x[31]
   + 0.8961619592335598 x[32] + 1.686795499047593 x[33]
   + 0.4676668395579063 x[34] + 0.6014421590538089 x[35]
   + 3.500293270019302 x[36] + 1.446180788385177 x[37]
   + 1.269120754663562 x[38] + 1.900247292418024 x[39]
   + 0.2965097342912853 x[40] + 4.649820373897517 x[41]
   + 2.168220815392359 x[42] + 2.471313623496827 x[43]
   + 3.938900959252973 x[44] + 4.456510397271868 x[45]
   + 4.514612641363489 x[46] + 1.617273003187568 x[47]
   + 0.2996330056287103 x[48] + 3.459880715489282 x[49] + 58 u[0] + 58 u[1]
   + 48 u[2] + 85 u[3] + 30 u[4] + 100 u[5] + 43 u[6] + 86 u[7] + 35 u[8]
   + 12 u[9] + 46 u[10] + 89 u[11] + 2 u[12] + 30 u[13] + 31 u[14]
   + 47 u[15] + 55 u[16] + 50 u[17] + 23 u[18] + 64 u[19] + 51 u[20]
   + 62 u[21] + 50 u[22] + 13 u[23] + 31 u[24] + 62 u[25] + 40 u[26]
   + 90 u[27] + 56 u[28] + 45 u[29] + 28 u[30] + 94 u[31] + 10 u[32]
   + 47 u[33] + 2 u[34] + 75 u[35] + 18 u[36] + 55 u[37] + 94 u[38]
   + 93 u[39] + 49 u[40] + 16 u[41] + 32 u[42] + 20 u[43] + 33 u[44]
   + 53 u[45] + 32 u[46] + 72 u[47] + 73 u[48] + 70 u[49] <= 10870
 mccormick1[0]: - u[0] + r[0] <= 0
 mccormick1[1]: - u[1] + r[1] <= 0
 mccormick1[2]: - u[2] + r[2] <= 0
 mccormick1[3]: - u[3] + r[3] <= 0
 mccormick1[4]: - u[4] + r[4] <= 0
 mccormick1[5]: - u[5] + r[5] <= 0
 mccormick1[6]: - u[6] + r[6] <= 0
 mccormick1[7]: - u[7] + r[7] <= 0
 mccormick1[8]: - u[8] + r[8] <= 0
 mccormick1[9]: - u[9] + r[9] <= 0
 mccormick1[10]: - u[10] + r[10] <= 0
 mccormick1[11]: - u[11] + r[11] <= 0
 mccormick1[12]: - u[12] + r[12] <= 0
 mccormick1[13]: - u[13] + r[13] <= 0
 mccormick1[14]: - u[14] + r[14] <= 0
 mccormick1[15]: - u[15] + r[15] <= 0
 mccormick1[16]: - u[16] + r[16] <= 0
 mccormick1[17]: - u[17] + r[17] <= 0
 mccormick1[18]: - u[18] + r[18] <= 0
 mccormick1[19]: - u[19] + r[19] <= 0
 mccormick1[20]: - u[20] + r[20] <= 0
 mccormick1[21]: - u[21] + r[21] <= 0
 mccormick1[22]: - u[22] + r[22] <= 0
 mccormick1[23]: - u[23] + r[23] <= 0
 mccormick1[24]: - u[24] + r[24] <= 0
 mccormick1[25]: - u[25] + r[25] <= 0
 mccormick1[26]: - u[26] + r[26] <= 0
 mccormick1[27]: - u[27] + r[27] <= 0
 mccormick1[28]: - u[28] + r[28] <= 0
 mccormick1[29]: - u[29] + r[29] <= 0
 mccormick1[30]: - u[30] + r[30] <= 0
 mccormick1[31]: - u[31] + r[31] <= 0
 mccormick1[32]: - u[32] + r[32] <= 0
 mccormick1[33]: - u[33] + r[33] <= 0
 mccormick1[34]: - u[34] + r[34] <= 0
 mccormick1[35]: - u[35] + r[35] <= 0
 mccormick1[36]: - u[36] + r[36] <= 0
 mccormick1[37]: - u[37] + r[37] <= 0
 mccormick1[38]: - u[38] + r[38] <= 0
 mccormick1[39]: - u[39] + r[39] <= 0
 mccormick1[40]: - u[40] + r[40] <= 0
 mccormick1[41]: - u[41] + r[41] <= 0
 mccormick1[42]: - u[42] + r[42] <= 0
 mccormick1[43]: - u[43] + r[43] <= 0
 mccormick1[44]: - u[44] + r[44] <= 0
 mccormick1[45]: - u[45] + r[45] <= 0
 mccormick1[46]: - u[46] + r[46] <= 0
 mccormick1[47]: - u[47] + r[47] <= 0
 mccormick1[48]: - u[48] + r[48] <= 0
 mccormick1[49]: - u[49] + r[49] <= 0
 mccormick2[0]: - x[0] + r[0] <= 0
 mccormick2[1]: - x[1] + r[1] <= 0
 mccormick2[2]: - x[2] + r[2] <= 0
 mccormick2[3]: - x[3] + r[3] <= 0
 mccormick2[4]: - x[4] + r[4] <= 0
 mccormick2[5]: - x[5] + r[5] <= 0
 mccormick2[6]: - x[6] + r[6] <= 0
 mccormick2[7]: - x[7] + r[7] <= 0
 mccormick2[8]: - x[8] + r[8] <= 0
 mccormick2[9]: - x[9] + r[9] <= 0
 mccormick2[10]: - x[10] + r[10] <= 0
 mccormick2[11]: - x[11] + r[11] <= 0
 mccormick2[12]: - x[12] + r[12] <= 0
 mccormick2[13]: - x[13] + r[13] <= 0
 mccormick2[14]: - x[14] + r[14] <= 0
 mccormick2[15]: - x[15] + r[15] <= 0
 mccormick2[16]: - x[16] + r[16] <= 0
 mccormick2[17]: - x[17] + r[17] <= 0
 mccormick2[18]: - x[18] + r[18] <= 0
 mccormick2[19]: - x[19] + r[19] <= 0
 mccormick2[20]: - x[20] + r[20] <= 0
 mccormick2[21]: - x[21] + r[21] <= 0
 mccormick2[22]: - x[22] + r[22] <= 0
 mccormick2[23]: - x[23] + r[23] <= 0
 mccormick2[24]: - x[24] + r[24] <= 0
 mccormick2[25]: - x[25] + r[25] <= 0
 mccormick2[26]: - x[26] + r[26] <= 0
 mccormick2[27]: - x[27] + r[27] <= 0
 mccormick2[28]: - x[28] + r[28] <= 0
 mccormick2[29]: - x[29] + r[29] <= 0
 mccormick2[30]: - x[30] + r[30] <= 0
 mccormick2[31]: - x[31] + r[31] <= 0
 mccormick2[32]: - x[32] + r[32] <= 0
 mccormick2[33]: - x[33] + r[33] <= 0
 mccormick2[34]: - x[34] + r[34] <= 0
 mccormick2[35]: - x[35] + r[35] <= 0
 mccormick2[36]: - x[36] + r[36] <= 0
 mccormick2[37]: - x[37] + r[37] <= 0
 mccormick2[38]: - x[38] + r[38] <= 0
 mccormick2[39]: - x[39] + r[39] <= 0
 mccormick2[40]: - x[40] + r[40] <= 0
 mccormick2[41]: - x[41] + r[41] <= 0
 mccormick2[42]: - x[42] + r[42] <= 0
 mccormick2[43]: - x[43] + r[43] <= 0
 mccormick2[44]: - x[44] + r[44] <= 0
 mccormick2[45]: - x[45] + r[45] <= 0
 mccormick2[46]: - x[46] + r[46] <= 0
 mccormick2[47]: - x[47] + r[47] <= 0
 mccormick2[48]: - x[48] + r[48] <= 0
 mccormick2[49]: - x[49] + r[49] <= 0
 mccormick3[0]: x[0] + u[0] - r[0] <= 1
 mccormick3[1]: x[1] + u[1] - r[1] <= 1
 mccormick3[2]: x[2] + u[2] - r[2] <= 1
 mccormick3[3]: x[3] + u[3] - r[3] <= 1
 mccormick3[4]: x[4] + u[4] - r[4] <= 1
 mccormick3[5]: x[5] + u[5] - r[5] <= 1
 mccormick3[6]: x[6] + u[6] - r[6] <= 1
 mccormick3[7]: x[7] + u[7] - r[7] <= 1
 mccormick3[8]: x[8] + u[8] - r[8] <= 1
 mccormick3[9]: x[9] + u[9] - r[9] <= 1
 mccormick3[10]: x[10] + u[10] - r[10] <= 1
 mccormick3[11]: x[11] + u[11] - r[11] <= 1
 mccormick3[12]: x[12] + u[12] - r[12] <= 1
 mccormick3[13]: x[13] + u[13] - r[13] <= 1
 mccormick3[14]: x[14] + u[14] - r[14] <= 1
 mccormick3[15]: x[15] + u[15] - r[15] <= 1
 mccormick3[16]: x[16] + u[16] - r[16] <= 1
 mccormick3[17]: x[17] + u[17] - r[17] <= 1
 mccormick3[18]: x[18] + u[18] - r[18] <= 1
 mccormick3[19]: x[19] + u[19] - r[19] <= 1
 mccormick3[20]: x[20] + u[20] - r[20] <= 1
 mccormick3[21]: x[21] + u[21] - r[21] <= 1
 mccormick3[22]: x[22] + u[22] - r[22] <= 1
 mccormick3[23]: x[23] + u[23] - r[23] <= 1
 mccormick3[24]: x[24] + u[24] - r[24] <= 1
 mccormick3[25]: x[25] + u[25] - r[25] <= 1
 mccormick3[26]: x[26] + u[26] - r[26] <= 1
 mccormick3[27]: x[27] + u[27] - r[27] <= 1
 mccormick3[28]: x[28] + u[28] - r[28] <= 1
 mccormick3[29]: x[29] + u[29] - r[29] <= 1
 mccormick3[30]: x[30] + u[30] - r[30] <= 1
 mccormick3[31]: x[31] + u[31] - r[31] <= 1
 mccormick3[32]: x[32] + u[32] - r[32] <= 1
 mccormick3[33]: x[33] + u[33] - r[33] <= 1
 mccormick3[34]: x[34] + u[34] - r[34] <= 1
 mccormick3[35]: x[35] + u[35] - r[35] <= 1
 mccormick3[36]: x[36] + u[36] - r[36] <= 1
 mccormick3[37]: x[37] + u[37] - r[37] <= 1
 mccormick3[38]: x[38] + u[38] - r[38] <= 1
 mccormick3[39]: x[39] + u[39] - r[39] <= 1
 mccormick3[40]: x[40] + u[40] - r[40] <= 1
 mccormick3[41]: x[41] + u[41] - r[41] <= 1
 mccormick3[42]: x[42] + u[42] - r[42] <= 1
 mccormick3[43]: x[43] + u[43] - r[43] <= 1
 mccormick3[44]: x[44] + u[44] - r[44] <= 1
 mccormick3[45]: x[45] + u[45] - r[45] <= 1
 mccormick3[46]: x[46] + u[46] - r[46] <= 1
 mccormick3[47]: x[47] + u[47] - r[47] <= 1
 mccormick3[48]: x[48] + u[48] - r[48] <= 1
 mccormick3[49]: x[49] + u[49] - r[49] <= 1
Bounds
Binaries
 x[0] x[1] x[2] x[3] x[4] x[5] x[6] x[7] x[8] x[9] x[10] x[11] x[12] x[13]
 x[14] x[15] x[16] x[17] x[18] x[19] x[20] x[21] x[22] x[23] x[24] x[25]
 x[26] x[27] x[28] x[29] x[30] x[31] x[32] x[33] x[34] x[35] x[36] x[37]
 x[38] x[39] x[40] x[41] x[42] x[43] x[44] x[45] x[46] x[47] x[48] x[49]
 u[0] u[1] u[2] u[3] u[4] u[5] u[6] u[7] u[8] u[9] u[10] u[11] u[12] u[13]
 u[14] u[15] u[16] u[17] u[18] u[19] u[20] u[21] u[22] u[23] u[24] u[25]
 u[26] u[27] u[28] u[29] u[30] u[31] u[32] u[33] u[34] u[35] u[36] u[37]
 u[38] u[39] u[40] u[41] u[42] u[43] u[44] u[45] u[46] u[47] u[48] u[49]
 r[0] r[1] r[2] r[3] r[4] r[5] r[6] r[7] r[8] r[9] r[10] r[11] r[12] r[13]
 r[14] r[15] r[16] r[17] r[18] r[19] r[20] r[21] r[22] r[23] r[24] r[25]
 r[26] r[27] r[28] r[29] r[30] r[31] r[32] r[33] r[34] r[35] r[36] r[37]
 r[38] r[39] r[40] r[41] r[42] r[43] r[44] r[45] r[46] r[47] r[48] r[49]
End
