instances/knapsack/discrete/knapsack_50_16.kp
27233
50
224

73 7.3 46
2 0.2 46
8 0.8 52
13 1.3 56
54 5.4 37
15 1.5 9
47 4.7 13
41 4.1 55
3 0.3 90
40 4.0 50
65 6.5 59
73 7.3 99
94 9.4 23
6 0.6 10
38 3.8 7
50 5.0 84
79 7.9 30
26 2.6 2
83 8.3 94
36 3.6 73
99 9.9 21
29 2.9 51
10 1.0 96
40 4.0 44
86 8.6 77
62 6.2 54
8 0.8 20
1 0.1 19
63 6.3 18
25 2.5 92
87 8.7 33
13 1.3 52
69 6.9 80
43 4.3 15
78 7.8 31
35 3.5 5
86 8.6 97
42 4.2 43
58 5.8 26
28 2.8 87
69 6.9 48
51 5.1 5
88 8.8 73
63 6.3 35
85 8.5 94
92 9.2 27
15 1.5 28
3 0.3 32
57 5.7 68
30 3.0 65

10870
234

[2.1735986830092453 1.9736179215527765 1.0383592190588018 0.17107390257721583 1.3097756224284163 2.8931535378116706 1.5604120112212319 0.14025149855986122 2.562149875294712 3.2331872673496993 2.3255547569954715 3.0789204685744713 1.5791783317406594 2.2038710588831236 3.1193031202574018 0.7131799401359958 3.727724546261765 3.2920230141440476 1.5150516305159802 4.028963185645854 1.9485696317608967 3.5039642043575627 0.5550329759691696 1.7577595251640308 4.10168508530796 3.018862330655322 3.826893283109649 4.089836666940913 1.4631271274116735 1.8290594447247024 2.4726806425938825 1.1159026272948462 0.8961619592335598 1.6867954990475929 0.4676668395579063 0.6014421590538089 3.500293270019302 1.446180788385177 1.2691207546635621 1.9002472924180238 0.2965097342912853 4.6498203738975175 2.1682208153923592 2.471313623496827 3.9389009592529733 4.456510397271868 4.514612641363489 1.6172730031875682 0.29963300562871026 3.459880715489282]

[58 58 48 85 30 100 43 86 35 12 46 89 2 30 31 47 55 50 23 64 51 62 50 13 31 62 40 90 56 45 28 94 10 47 2 75 18 55 94 93 49 16 32 20 33 53 32 72 73 70]
